6490
8261
7973
9224
9477
6015
6978
6136
4845
3692
7142
9032
1319
1509
9260
8921
2910
7246
1674
3324
9595
1379
7958
1814
5833
8803
5044
5416
9112
2702
9165
1312
888
9041
6864
3491
6690
1187
9299
4539
4939
7874
8254
2061
6077
1320
5495
5358
4237
5556
